SDVRP instances/p04/p04_7090_tsplib0_split0.vrp
NAME:.\SDVRP_split
BEST_KNOWN: 0
COMMENT: 0
DIMENSION: 1064
CAPACITY: 200
EDGE_WEIGHT_FORMAT: FUNCTION
EDGE_WEIGHT_TYPE: EXACT_2D
NODE_COORD_SECTION
1 0.00000 0.00000
2 2 17
3 2 17
4 2 17
5 2 17
6 2 17
7 2 17
8 2 17
9 14 14
10 14 14
11 14 14
12 14 14
13 14 14
14 14 14
15 14 14
16 14 14
17 17 29
18 17 29
19 17 29
20 17 29
21 17 29
22 17 29
23 17 29
24 17 29
25 17 29
26 -15 -9
27 -15 -9
28 -15 -9
29 -15 -9
30 -15 -9
31 5 -5
32 5 -5
33 5 -5
34 5 -5
35 5 -5
36 5 -5
37 5 -5
38 5 -5
39 -14 12
40 -14 12
41 -14 12
42 -14 12
43 -14 12
44 -14 12
45 -14 12
46 -18 28
47 -18 28
48 -18 28
49 -18 28
50 -18 28
51 -18 28
52 -18 28
53 -18 28
54 -18 28
55 -18 28
56 -4 27
57 -4 27
58 -4 27
59 -4 27
60 -4 27
61 -4 27
62 17 -2
63 17 -2
64 17 -2
65 17 -2
66 17 -2
67 17 -2
68 17 -2
69 17 -2
70 16 -14
71 16 -14
72 16 -14
73 16 -14
74 16 -14
75 7 6
76 7 6
77 7 6
78 7 6
79 7 6
80 7 6
81 -4 -3
82 -4 -3
83 -4 -3
84 -4 -3
85 -4 -3
86 -4 -3
87 -4 -3
88 -4 -3
89 -30 -10
90 -30 -10
91 -30 -10
92 -30 -10
93 -30 -10
94 -30 -10
95 -30 -10
96 -30 -10
97 -30 -10
98 -23 7
99 -23 7
100 -23 7
101 -23 7
102 1 -19
103 1 -19
104 1 -19
105 1 -19
106 1 -19
107 1 -19
108 1 -19
109 1 -19
110 17 6
111 17 6
112 17 6
113 17 6
114 17 6
115 17 6
116 -8 -12
117 -8 -12
118 -8 -12
119 -8 -12
120 -8 -12
121 -8 -12
122 -18 -2
123 -18 -2
124 -18 -2
125 -18 -2
126 -22 -22
127 -22 -22
128 -22 -22
129 -22 -22
130 -22 -22
131 -22 -22
132 -22 -22
133 22 23
134 22 23
135 22 23
136 22 23
137 22 23
138 27 7
139 27 7
140 27 7
141 27 7
142 27 7
143 27 7
144 7 22
145 7 22
146 7 22
147 7 22
148 7 22
149 7 22
150 7 22
151 -19 22
152 -19 22
153 -19 22
154 -19 22
155 -19 22
156 -19 22
157 -19 22
158 -27 17
159 -27 17
160 -27 17
161 -27 17
162 -27 17
163 -27 17
164 -28 3
165 -28 3
166 -28 3
167 -28 3
168 -28 3
169 -28 3
170 -8 33
171 -8 33
172 -8 33
173 -8 33
174 -8 33
175 -8 33
176 -8 33
177 -8 33
178 -8 33
179 -5 13
180 -5 13
181 -5 13
182 -5 13
183 -5 13
184 8 32
185 8 32
186 8 32
187 8 32
188 8 32
189 8 32
190 23 13
191 23 13
192 23 13
193 23 13
194 23 13
195 23 13
196 23 13
197 23 -8
198 23 -8
199 23 -8
200 23 -8
201 23 -8
202 23 -8
203 2 34
204 2 34
205 2 34
206 2 34
207 2 34
208 2 34
209 2 34
210 3 11
211 3 11
212 3 11
213 3 11
214 3 11
215 3 11
216 11 -25
217 11 -25
218 11 -25
219 11 -25
220 11 -25
221 11 -25
222 11 -25
223 26 -2
224 26 -2
225 26 -2
226 26 -2
227 26 -2
228 26 -2
229 26 -2
230 26 -2
231 27 28
232 27 28
233 27 28
234 27 28
235 27 28
236 27 28
237 27 28
238 28 34
239 28 34
240 28 34
241 28 34
242 28 34
243 28 34
244 28 34
245 28 34
246 28 34
247 28 34
248 -3 -13
249 -3 -13
250 -3 -13
251 -3 -13
252 -3 -13
253 -3 -13
254 10 0
255 10 0
256 10 0
257 10 0
258 10 0
259 10 0
260 10 0
261 10 0
262 10 0
263 10 0
264 24 -20
265 24 -20
266 24 -20
267 24 -20
268 24 -20
269 24 -20
270 24 -20
271 24 -20
272 24 -20
273 24 -20
274 -30 -29
275 -30 -29
276 -30 -29
277 -30 -29
278 -30 -29
279 -30 -29
280 -30 -29
281 -25 -18
282 -25 -18
283 -25 -18
284 -25 -18
285 -25 -18
286 -25 -18
287 -25 -18
288 -25 -18
289 -14 -25
290 -14 -25
291 -14 -25
292 -14 -25
293 -14 -25
294 -30 29
295 -30 29
296 -30 29
297 -30 29
298 -30 29
299 -30 29
300 -30 29
301 -5 -20
302 -5 -20
303 -5 -20
304 -5 -20
305 -5 -20
306 -5 -20
307 -5 -20
308 4 -25
309 4 -25
310 4 -25
311 4 -25
312 4 -25
313 4 -25
314 4 -25
315 4 -25
316 -3 4
317 -3 4
318 -3 4
319 -3 4
320 -3 4
321 -3 4
322 -10 -3
323 -10 -3
324 -10 -3
325 -10 -3
326 -10 -3
327 -10 -3
328 -10 -3
329 -10 -3
330 -10 -3
331 -10 -3
332 -10 20
333 -10 20
334 -10 20
335 -10 20
336 -10 20
337 -10 20
338 -10 20
339 -10 20
340 -10 20
341 13 -7
342 13 -7
343 13 -7
344 13 -7
345 13 -7
346 13 -7
347 13 -7
348 21 2
349 21 2
350 21 2
351 21 2
352 21 2
353 21 2
354 6 14
355 6 14
356 6 14
357 6 14
358 6 14
359 6 14
360 6 14
361 0 -18
362 0 -18
363 0 -18
364 0 -18
365 0 -18
366 0 -18
367 0 -18
368 20 10
369 20 10
370 20 10
371 20 10
372 20 10
373 20 10
374 20 -15
375 20 -15
376 20 -15
377 20 -15
378 20 -15
379 20 -15
380 20 -15
381 20 -15
382 -20 -5
383 -20 -5
384 -20 -5
385 -20 -5
386 -20 -5
387 -20 -5
388 -20 -5
389 -20 -5
390 -20 -5
391 -10 -5
392 -10 -5
393 -10 -5
394 -10 -5
395 -10 -5
396 -10 -5
397 -10 -5
398 -10 -5
399 -10 -5
400 -15 15
401 -15 15
402 -15 15
403 -15 15
404 -15 15
405 -15 15
406 -25 8
407 -25 8
408 -25 8
409 -25 8
410 -25 8
411 -25 8
412 -25 8
413 -25 8
414 20 25
415 20 25
416 20 25
417 20 25
418 20 25
419 20 25
420 20 25
421 20 25
422 -5 25
423 -5 25
424 -5 25
425 -5 25
426 -5 25
427 -5 25
428 -5 25
429 -15 30
430 -15 30
431 -15 30
432 -15 30
433 -15 30
434 -15 30
435 -15 30
436 -15 30
437 15 0
438 15 0
439 15 0
440 15 0
441 15 0
442 -5 -10
443 -5 -10
444 -5 -10
445 -5 -10
446 -5 -10
447 -5 -10
448 -20 -25
449 -20 -25
450 -20 -25
451 -20 -25
452 -20 -25
453 -20 -25
454 -5 -30
455 -5 -30
456 -5 -30
457 -5 -30
458 -5 -30
459 -5 -30
460 -5 -30
461 -25 -15
462 -25 -15
463 -25 -15
464 -25 -15
465 -25 -15
466 -25 -15
467 -25 -15
468 -25 -15
469 -25 -15
470 -25 -15
471 -30 -5
472 -30 -5
473 -30 -5
474 -30 -5
475 -30 -5
476 -30 -5
477 -30 -5
478 -15 5
479 -15 5
480 -15 5
481 -15 5
482 -15 5
483 -15 5
484 -20 25
485 -20 25
486 -20 25
487 -20 25
488 -20 25
489 -20 25
490 -20 25
491 -20 25
492 -20 25
493 -20 25
494 10 30
495 10 30
496 10 30
497 10 30
498 10 30
499 10 30
500 10 30
501 10 -15
502 10 -15
503 10 -15
504 10 -15
505 10 -15
506 10 -15
507 10 -15
508 10 -15
509 10 -15
510 10 -25
511 10 -25
512 10 -25
513 10 -25
514 10 -25
515 10 -25
516 10 -25
517 10 -25
518 20 -30
519 20 -30
520 20 -30
521 20 -30
522 20 -30
523 20 -30
524 20 -30
525 30 0
526 30 0
527 30 0
528 30 0
529 30 0
530 30 0
531 30 0
532 30 0
533 30 0
534 30 0
535 30 -15
536 30 -15
537 30 -15
538 30 -15
539 30 -15
540 10 -5
541 10 -5
542 10 -5
543 10 -5
544 10 -5
545 10 -5
546 10 -5
547 0 5
548 0 5
549 0 5
550 0 5
551 0 5
552 0 5
553 6 2
554 6 2
555 6 2
556 6 2
557 6 2
558 6 2
559 6 2
560 6 2
561 29 7
562 29 7
563 29 7
564 29 7
565 29 7
566 5 25
567 5 25
568 5 25
569 5 25
570 5 25
571 5 25
572 -4 17
573 -4 17
574 -4 17
575 -4 17
576 -4 17
577 -4 17
578 -4 17
579 0 34
580 0 34
581 0 34
582 0 34
583 0 34
584 0 34
585 18 17
586 18 17
587 18 17
588 18 17
589 18 17
590 18 17
591 18 17
592 18 17
593 30 20
594 30 20
595 30 20
596 30 20
597 30 20
598 30 20
599 30 20
600 28 30
601 28 30
602 28 30
603 28 30
604 28 30
605 28 30
606 28 30
607 28 30
608 28 30
609 28 30
610 -33 25
611 -33 25
612 -33 25
613 -33 25
614 -33 25
615 -33 25
616 -15 -15
617 -15 -15
618 -15 -15
619 -15 -15
620 -15 -15
621 -15 -15
622 -15 -15
623 -15 -15
624 -15 -15
625 -15 -15
626 -30 -30
627 -30 -30
628 -30 -30
629 -30 -30
630 -30 -30
631 -30 -30
632 25 -23
633 25 -23
634 25 -23
635 25 -23
636 25 -23
637 25 -23
638 25 -23
639 5 -10
640 5 -10
641 5 -10
642 5 -10
643 5 -10
644 5 -10
645 7 -28
646 7 -28
647 7 -28
648 7 -28
649 7 -28
650 7 -28
651 -11 -23
652 -11 -23
653 -11 -23
654 -11 -23
655 -11 -23
656 -11 -23
657 -12 -32
658 -12 -32
659 -12 -32
660 -12 -32
661 -12 -32
662 -12 -32
663 -12 -32
664 -12 -32
665 -24 -21
666 -24 -21
667 -24 -21
668 -24 -21
669 -24 -21
670 -24 -21
671 -24 -21
672 -24 -21
673 -24 -21
674 -29 3
675 -29 3
676 -29 3
677 -29 3
678 -29 3
679 -29 3
680 -29 3
681 -29 3
682 -33 13
683 -33 13
684 -33 13
685 -33 13
686 -33 13
687 -33 13
688 -27 21
689 -27 21
690 -27 21
691 -27 21
692 -27 21
693 -22 17
694 -22 17
695 -22 17
696 -22 17
697 -22 17
698 -22 17
699 -22 17
700 -22 17
701 -22 17
702 -29 33
703 -29 33
704 -29 33
705 -29 33
706 -29 33
707 12 12
708 12 12
709 12 12
710 12 12
711 12 12
712 12 12
713 14 23
714 14 23
715 14 23
716 14 23
717 14 23
718 14 23
719 14 23
720 -8 8
721 -8 8
722 -8 8
723 -8 8
724 -8 8
725 -8 8
726 2 -4
727 2 -4
728 2 -4
729 2 -4
730 2 -4
731 22 -6
732 22 -6
733 22 -6
734 22 -6
735 22 -6
736 22 -6
737 22 -6
738 22 -6
739 22 -6
740 28 -12
741 28 -12
742 28 -12
743 28 -12
744 28 -12
745 28 -12
746 28 -12
747 28 -12
748 28 -12
749 18 -23
750 18 -23
751 18 -23
752 18 -23
753 18 -23
754 18 -23
755 18 -23
756 18 -23
757 -3 -23
758 -3 -23
759 -3 -23
760 -3 -23
761 -3 -23
762 -3 -23
763 1 -9
764 1 -9
765 1 -9
766 1 -9
767 1 -9
768 -14 -11
769 -14 -11
770 -14 -11
771 -14 -11
772 -14 -11
773 -14 -11
774 -18 -1
775 -18 -1
776 -18 -1
777 -18 -1
778 -18 -1
779 -18 -1
780 -18 -1
781 -18 -1
782 -23 -11
783 -23 -11
784 -23 -11
785 -23 -11
786 -23 -11
787 -23 -11
788 -23 -11
789 -23 -11
790 -11 23
791 -11 23
792 -11 23
793 -11 23
794 -11 23
795 -11 23
796 -11 23
797 -8 34
798 -8 34
799 -8 34
800 -8 34
801 -20 42
802 -20 42
803 -20 42
804 -20 42
805 -20 42
806 -20 42
807 27 42
808 27 42
809 27 42
810 27 42
811 27 42
812 27 42
813 27 42
814 27 42
815 14 38
816 14 38
817 14 38
818 14 38
819 14 38
820 14 38
821 14 38
822 14 38
823 32 -30
824 32 -30
825 32 -30
826 32 -30
827 32 -30
828 32 -30
829 32 -30
830 21 4
831 21 4
832 21 4
833 21 4
834 21 4
835 21 4
836 21 4
837 2 12
838 2 12
839 2 12
840 2 12
841 2 12
842 2 21
843 2 21
844 2 21
845 2 21
846 2 21
847 2 21
848 2 21
849 2 21
850 2 21
851 22 33
852 22 33
853 22 33
854 22 33
855 22 33
856 22 33
857 22 33
858 12 -19
859 12 -19
860 12 -19
861 12 -19
862 12 -19
863 12 -19
864 12 -19
865 12 -19
866 12 -19
867 12 -19
868 9 -18
869 9 -18
870 9 -18
871 9 -18
872 9 -18
873 11 -22
874 11 -22
875 11 -22
876 11 -22
877 11 -22
878 11 -22
879 11 -22
880 11 -22
881 14 -24
882 14 -24
883 14 -24
884 14 -24
885 14 -24
886 14 -24
887 14 -24
888 14 7
889 14 7
890 14 7
891 14 7
892 14 7
893 18 8
894 18 8
895 18 8
896 18 8
897 18 8
898 18 8
899 18 8
900 18 8
901 18 8
902 26 17
903 26 17
904 26 17
905 26 17
906 26 17
907 26 17
908 26 17
909 26 17
910 26 17
911 26 17
912 22 13
913 22 13
914 22 13
915 22 13
916 22 13
917 22 13
918 22 13
919 22 13
920 21 2
921 21 2
922 21 2
923 21 2
924 21 2
925 21 2
926 21 2
927 21 2
928 21 2
929 20 19
930 20 19
931 20 19
932 20 19
933 20 19
934 20 19
935 20 19
936 -20 12
937 -20 12
938 -20 12
939 -20 12
940 -20 12
941 -20 12
942 -21 2
943 -21 2
944 -21 2
945 -21 2
946 -21 2
947 -21 2
948 -24 -4
949 -24 -4
950 -24 -4
951 -24 -4
952 -24 -4
953 -24 -4
954 -24 -4
955 -24 -4
956 -24 -4
957 -19 -13
958 -19 -13
959 -19 -13
960 -19 -13
961 -19 -13
962 -19 -13
963 -31 -17
964 -31 -17
965 -31 -17
966 -31 -17
967 -31 -17
968 -31 -17
969 -7 -17
970 -7 -17
971 -7 -17
972 -7 -17
973 -7 -17
974 -9 17
975 -9 17
976 -9 17
977 -9 17
978 -9 17
979 -9 17
980 -9 0
981 -9 0
982 -9 0
983 -9 0
984 -9 0
985 -9 0
986 -4 32
987 -4 32
988 -4 32
989 -4 32
990 -4 32
991 -4 32
992 -4 32
993 -4 32
994 -4 32
995 -20 -16
996 -20 -16
997 -20 -16
998 -20 -16
999 -20 -16
1000 -13 -13
1001 -13 -13
1002 -13 -13
1003 -13 -13
1004 -13 -13
1005 -13 -13
1006 -17 -11
1007 -17 -11
1008 -17 -11
1009 -17 -11
1010 -17 -11
1011 -17 -11
1012 -9 -8
1013 -9 -8
1014 -9 -8
1015 -9 -8
1016 -9 -8
1017 -9 -8
1018 -9 -8
1019 -9 -8
1020 -10 -11
1021 -10 -11
1022 -10 -11
1023 -10 -11
1024 -10 -11
1025 -10 -11
1026 -10 -11
1027 -13 -8
1028 -13 -8
1029 -13 -8
1030 -13 -8
1031 -13 -8
1032 -13 -8
1033 -13 -8
1034 -13 -8
1035 -10 -14
1036 -10 -14
1037 -10 -14
1038 -10 -14
1039 -10 -14
1040 -10 -14
1041 -10 -14
1042 -10 -14
1043 -10 -14
1044 -10 -14
1045 -16 -14
1046 -16 -14
1047 -16 -14
1048 -16 -14
1049 -16 -14
1050 -16 -14
1051 -16 -14
1052 -16 -14
1053 -15 -9
1054 -15 -9
1055 -15 -9
1056 -15 -9
1057 -15 -9
1058 -17 -17
1059 -17 -17
1060 -17 -17
1061 -17 -17
1062 -17 -17
1063 -17 -17
1064 -17 -17
DEMAND_SECTION
1 0
2 40
3 40
4 40
5 40
6 10
7 2
8 2
9 40
10 40
11 40
12 20
13 10
14 2
15 2
16 1
17 40
18 40
19 40
20 20
21 2
22 2
23 2
24 2
25 1
26 40
27 40
28 40
29 40
30 2
31 40
32 40
33 40
34 40
35 10
36 2
37 2
38 2
39 40
40 40
41 40
42 40
43 10
44 2
45 2
46 40
47 40
48 40
49 20
50 10
51 2
52 2
53 2
54 2
55 1
56 40
57 40
58 40
59 20
60 2
61 2
62 40
63 40
64 40
65 20
66 2
67 2
68 2
69 2
70 40
71 40
72 40
73 20
74 1
75 40
76 40
77 40
78 40
79 10
80 2
81 40
82 40
83 40
84 20
85 10
86 2
87 2
88 1
89 40
90 40
91 40
92 20
93 10
94 2
95 2
96 2
97 2
98 40
99 40
100 40
101 40
102 40
103 40
104 40
105 40
106 2
107 2
108 2
109 2
110 40
111 40
112 40
113 20
114 10
115 1
116 40
117 40
118 40
119 20
120 2
121 1
122 40
123 40
124 40
125 40
126 40
127 40
128 40
129 40
130 10
131 2
132 2
133 40
134 40
135 40
136 40
137 1
138 40
139 40
140 40
141 20
142 2
143 2
144 40
145 40
146 40
147 40
148 2
149 2
150 1
151 40
152 40
153 40
154 40
155 2
156 2
157 2
158 40
159 40
160 40
161 40
162 2
163 1
164 40
165 40
166 40
167 40
168 10
169 1
170 40
171 40
172 40
173 40
174 2
175 2
176 2
177 2
178 1
179 40
180 40
181 40
182 20
183 1
184 40
185 40
186 40
187 40
188 10
189 1
190 40
191 40
192 40
193 20
194 2
195 2
196 2
197 40
198 40
199 40
200 20
201 2
202 2
203 40
204 40
205 40
206 40
207 10
208 2
209 2
210 40
211 40
212 40
213 40
214 10
215 2
216 40
217 40
218 40
219 40
220 10
221 2
222 1
223 40
224 40
225 40
226 20
227 2
228 2
229 2
230 2
231 40
232 40
233 40
234 40
235 10
236 2
237 1
238 40
239 40
240 40
241 20
242 10
243 2
244 2
245 2
246 2
247 1
248 40
249 40
250 40
251 40
252 10
253 1
254 40
255 40
256 40
257 20
258 10
259 2
260 2
261 2
262 2
263 1
264 40
265 40
266 40
267 20
268 10
269 2
270 2
271 2
272 2
273 1
274 40
275 40
276 40
277 40
278 10
279 2
280 1
281 40
282 40
283 40
284 20
285 2
286 2
287 2
288 1
289 40
290 40
291 40
292 20
293 2
294 40
295 40
296 40
297 40
298 2
299 2
300 1
301 40
302 40
303 40
304 40
305 2
306 2
307 2
308 40
309 40
310 40
311 40
312 10
313 2
314 2
315 1
316 40
317 40
318 40
319 20
320 10
321 1
322 40
323 40
324 40
325 20
326 10
327 2
328 2
329 2
330 2
331 1
332 40
333 40
334 40
335 20
336 10
337 2
338 2
339 2
340 1
341 40
342 40
343 40
344 40
345 10
346 2
347 1
348 40
349 40
350 40
351 40
352 2
353 2
354 40
355 40
356 40
357 40
358 2
359 2
360 2
361 40
362 40
363 40
364 40
365 2
366 2
367 2
368 40
369 40
370 40
371 20
372 2
373 1
374 40
375 40
376 40
377 40
378 10
379 2
380 2
381 2
382 40
383 40
384 40
385 40
386 2
387 2
388 2
389 2
390 1
391 40
392 40
393 40
394 40
395 2
396 2
397 2
398 2
399 1
400 40
401 40
402 40
403 20
404 10
405 2
406 40
407 40
408 40
409 40
410 2
411 2
412 2
413 2
414 40
415 40
416 40
417 20
418 10
419 2
420 2
421 2
422 40
423 40
424 40
425 20
426 10
427 2
428 1
429 40
430 40
431 40
432 40
433 10
434 2
435 2
436 1
437 40
438 40
439 40
440 20
441 10
442 40
443 40
444 40
445 20
446 10
447 2
448 40
449 40
450 40
451 20
452 10
453 1
454 40
455 40
456 40
457 20
458 10
459 2
460 2
461 40
462 40
463 40
464 20
465 10
466 2
467 2
468 2
469 2
470 1
471 40
472 40
473 40
474 40
475 10
476 2
477 2
478 40
479 40
480 40
481 20
482 2
483 1
484 40
485 40
486 40
487 40
488 10
489 2
490 2
491 2
492 2
493 1
494 40
495 40
496 40
497 40
498 10
499 2
500 2
501 40
502 40
503 40
504 40
505 10
506 2
507 2
508 2
509 1
510 40
511 40
512 40
513 40
514 10
515 2
516 2
517 1
518 40
519 40
520 40
521 40
522 10
523 2
524 1
525 40
526 40
527 40
528 40
529 10
530 2
531 2
532 2
533 2
534 1
535 40
536 40
537 40
538 20
539 2
540 40
541 40
542 40
543 20
544 10
545 2
546 1
547 40
548 40
549 40
550 40
551 2
552 1
553 40
554 40
555 40
556 40
557 2
558 2
559 2
560 2
561 40
562 40
563 40
564 40
565 2
566 40
567 40
568 40
569 40
570 10
571 2
572 40
573 40
574 40
575 40
576 2
577 2
578 2
579 40
580 40
581 40
582 20
583 10
584 1
585 40
586 40
587 40
588 40
589 2
590 2
591 2
592 1
593 40
594 40
595 40
596 40
597 2
598 2
599 1
600 40
601 40
602 40
603 40
604 10
605 2
606 2
607 2
608 2
609 1
610 40
611 40
612 40
613 40
614 10
615 1
616 40
617 40
618 40
619 40
620 10
621 2
622 2
623 2
624 2
625 1
626 40
627 40
628 40
629 40
630 10
631 2
632 40
633 40
634 40
635 40
636 10
637 2
638 2
639 40
640 40
641 40
642 20
643 2
644 2
645 40
646 40
647 40
648 40
649 10
650 2
651 40
652 40
653 40
654 40
655 2
656 1
657 40
658 40
659 40
660 20
661 2
662 2
663 2
664 1
665 40
666 40
667 40
668 40
669 10
670 2
671 2
672 2
673 1
674 40
675 40
676 40
677 40
678 2
679 2
680 2
681 1
682 40
683 40
684 40
685 40
686 10
687 1
688 40
689 40
690 40
691 40
692 10
693 40
694 40
695 40
696 20
697 10
698 2
699 2
700 2
701 1
702 40
703 40
704 40
705 40
706 10
707 40
708 40
709 40
710 20
711 2
712 2
713 40
714 40
715 40
716 40
717 2
718 2
719 2
720 40
721 40
722 40
723 40
724 10
725 1
726 40
727 40
728 40
729 40
730 10
731 40
732 40
733 40
734 40
735 10
736 2
737 2
738 2
739 2
740 40
741 40
742 40
743 20
744 10
745 2
746 2
747 2
748 1
749 40
750 40
751 40
752 20
753 2
754 2
755 2
756 2
757 40
758 40
759 40
760 20
761 2
762 1
763 40
764 40
765 40
766 40
767 2
768 40
769 40
770 40
771 20
772 10
773 2
774 40
775 40
776 40
777 40
778 10
779 2
780 2
781 2
782 40
783 40
784 40
785 40
786 10
787 2
788 2
789 2
790 40
791 40
792 40
793 40
794 2
795 2
796 2
797 40
798 40
799 40
800 20
801 40
802 40
803 40
804 20
805 10
806 2
807 40
808 40
809 40
810 40
811 2
812 2
813 2
814 1
815 40
816 40
817 40
818 20
819 10
820 2
821 2
822 1
823 40
824 40
825 40
826 20
827 10
828 2
829 2
830 40
831 40
832 40
833 40
834 10
835 2
836 1
837 40
838 40
839 40
840 40
841 10
842 40
843 40
844 40
845 40
846 10
847 2
848 2
849 2
850 1
851 40
852 40
853 40
854 20
855 10
856 2
857 1
858 40
859 40
860 40
861 20
862 10
863 2
864 2
865 2
866 2
867 1
868 40
869 40
870 40
871 20
872 2
873 40
874 40
875 40
876 20
877 10
878 2
879 2
880 1
881 40
882 40
883 40
884 40
885 2
886 2
887 2
888 40
889 40
890 40
891 40
892 1
893 40
894 40
895 40
896 40
897 10
898 2
899 2
900 2
901 2
902 40
903 40
904 40
905 20
906 10
907 2
908 2
909 2
910 2
911 1
912 40
913 40
914 40
915 40
916 2
917 2
918 2
919 1
920 40
921 40
922 40
923 20
924 10
925 2
926 2
927 2
928 2
929 40
930 40
931 40
932 40
933 2
934 2
935 1
936 40
937 40
938 40
939 40
940 2
941 2
942 40
943 40
944 40
945 40
946 10
947 1
948 40
949 40
950 40
951 40
952 2
953 2
954 2
955 2
956 1
957 40
958 40
959 40
960 40
961 10
962 1
963 40
964 40
965 40
966 40
967 2
968 1
969 40
970 40
971 40
972 40
973 2
974 40
975 40
976 40
977 20
978 10
979 2
980 40
981 40
982 40
983 20
984 10
985 2
986 40
987 40
988 40
989 40
990 10
991 2
992 2
993 2
994 1
995 40
996 40
997 40
998 40
999 2
1000 40
1001 40
1002 40
1003 40
1004 2
1005 2
1006 40
1007 40
1008 40
1009 40
1010 2
1011 1
1012 40
1013 40
1014 40
1015 20
1016 2
1017 2
1018 2
1019 1
1020 40
1021 40
1022 40
1023 40
1024 2
1025 2
1026 2
1027 40
1028 40
1029 40
1030 40
1031 2
1032 2
1033 2
1034 1
1035 40
1036 40
1037 40
1038 40
1039 10
1040 2
1041 2
1042 2
1043 2
1044 1
1045 40
1046 40
1047 40
1048 20
1049 2
1050 2
1051 2
1052 2
1053 40
1054 40
1055 40
1056 40
1057 2
1058 40
1059 40
1060 40
1061 20
1062 10
1063 2
1064 2
DEPOT_SECTION
1
-1
EOF