SDVRP instances/p04/p04_7090_tsplib0_split0.sol
1063 -3 2 4 1 838 -18 851 850 854 853 852 856 855 -20 17 16 418 417 416 413 420 414 419 -26 27 28 1029 1028 -31 30 640 639 638 -33 32 726 725 728 -36 34 35 37 69 73 72 71 376 375 380 -38 99 97 98 100 -41 40 39 400 399 -49 435 432 431 429 428 793 794 332 338 978 977 -53 45 46 48 50 54 47 52 51 484 487 -59 56 985 989 993 987 988 992 427 424 -60 57 58 55 423 426 422 425 577 576 575 -64 68 348 919 351 352 833 835 834 831 832 -65 63 61 62 439 440 438 261 260 262 258 -66 67 736 738 731 730 733 737 201 197 199 -70 749 750 753 754 755 751 752 748 -75 77 74 76 554 -78 709 15 591 589 588 590 231 232 233 235 415 -79 11 10 13 12 14 8 9 706 711 710 -80 1020 1022 1021 1019 -81 391 393 390 392 -85 82 86 84 1014 1017 1015 1012 1011 1013 1018 -87 83 624 617 615 618 621 616 619 622 1003 1004 -93 94 91 96 88 92 90 89 95 959 -102 308 309 310 307 -103 104 101 362 361 -108 107 106 105 311 313 314 312 645 648 649 646 644 647 -115 999 1002 1001 1000 -117 116 443 442 441 -118 1039 1036 1037 1034 1038 1042 1041 1043 1035 1040 -120 119 289 291 290 288 292 970 972 445 -121 123 124 122 776 -126 128 664 667 666 -127 125 130 452 451 448 447 450 -131 129 625 626 627 630 629 628 277 279 278 -132 133 134 135 584 -136 230 246 245 244 237 243 242 240 241 239 238 -139 138 137 585 586 -140 142 141 564 561 560 563 562 -143 495 496 493 494 -144 146 145 566 565 -149 147 148 498 497 499 187 186 188 183 184 185 569 -159 160 157 158 694 -162 161 611 612 614 610 613 609 691 700 699 696 -164 165 166 163 941 -167 168 676 675 673 680 677 679 674 678 945 946 -171 170 169 172 421 -177 173 174 176 175 797 799 798 796 990 991 986 -178 179 181 180 316 318 -182 802 805 804 803 801 800 433 434 430 -189 191 913 914 912 -190 195 192 193 194 903 905 902 901 -196 536 535 537 538 534 543 545 -198 200 744 747 746 739 745 741 740 742 743 -203 204 202 208 207 206 568 6 7 5 840 -205 581 582 583 578 579 580 550 551 -211 212 209 837 836 -213 214 210 358 356 357 354 353 359 -218 221 216 217 219 511 515 513 -226 225 227 228 229 223 224 222 735 734 732 -251 247 250 248 252 249 444 446 -256 259 254 257 255 253 553 556 -264 269 272 825 827 828 824 823 826 822 -265 267 263 266 270 271 268 373 378 379 374 -274 273 276 275 449 -280 286 281 282 665 671 668 672 670 669 1047 -283 287 284 285 965 963 964 967 962 966 -295 294 293 296 693 -300 302 301 303 968 -304 305 306 756 757 761 759 366 365 363 360 364 766 -315 547 548 549 546 -317 719 722 721 720 -320 319 151 156 154 155 152 153 150 404 402 -324 330 325 395 398 29 25 1006 1010 1005 1008 -327 322 323 328 321 329 326 980 982 984 983 -331 333 975 974 973 -337 334 339 335 336 795 789 790 792 791 -343 342 340 344 341 346 345 542 544 -350 347 349 436 437 -355 715 714 712 713 -371 372 369 370 367 368 911 918 915 917 916 -377 634 633 637 635 632 631 636 -384 950 947 949 948 -385 381 389 387 388 383 386 382 780 778 779 777 773 -397 396 394 1031 1033 1032 1030 1009 1007 1044 1045 1049 1050 1046 1051 1048 1016 -403 401 486 492 489 490 483 485 488 491 976 -407 412 406 410 405 409 411 408 481 480 482 -453 457 458 454 456 459 455 760 758 -463 468 461 462 465 460 464 466 469 467 958 -471 470 472 476 473 475 474 951 953 954 952 955 -479 477 478 979 981 -500 502 869 868 867 -504 506 503 857 864 861 858 865 859 -505 501 507 508 879 876 872 874 873 870 -510 509 516 512 514 215 220 875 878 877 871 642 643 -523 519 520 521 518 522 517 863 862 860 866 -527 529 531 528 530 532 525 524 526 533 -539 541 540 552 555 -558 557 559 113 114 112 111 110 109 891 889 -570 567 815 818 817 814 816 821 819 820 -574 572 571 573 839 -587 931 929 928 930 -595 593 592 597 594 598 596 906 909 908 910 904 907 -608 599 602 604 603 606 607 605 600 601 234 236 932 933 934 -623 620 1063 1061 1060 1062 1057 1058 1059 998 996 -650 654 655 662 660 657 656 663 658 659 661 -651 652 653 971 969 -684 682 681 683 686 685 -688 689 690 687 692 -697 695 698 297 298 299 705 702 701 704 703 -707 708 888 890 887 -716 717 718 22 21 24 19 23 807 808 809 812 810 813 811 806 -724 723 43 44 42 938 935 939 937 940 936 -727 765 762 763 764 -729 641 886 881 885 882 883 884 880 -775 774 942 944 943 -787 782 783 785 781 784 788 786 960 961 -830 829 922 924 926 927 925 923 921 920 -848 842 844 841 843 847 846 845 849 -898 896 899 895 893 894 892 897 900 -956 957 995 997 994 -1023 1025 1024 770 768 769 772 771 767 1055 1056 -1027 1026 1054 1052 1053 0 





OBJ=
6563.508
BEST_KNOWN=
0.000